;; translated from ./ctigar/nested5.c.vmt
;; original benchmark available at: https://es-static.fbk.eu/people/griggio/ic3ia/index.html
;; author: Alberto Griggio <griggio@fbk.eu>
(set-logic HORN)
(declare-fun state (Bool Bool Bool Bool Bool Int Int Int Int) Bool)
(assert (forall ((|.s.2| Bool) (|.s.0| Bool) (|.s.1| Bool) (|.s.0.next| Bool) (|.s.1.next| Bool) (|.s.2.next| Bool) (|.s.3.next| Bool) (|.s.4.next| Bool) (|main.i.next| Int) (|main.i| Int) (|main.j.next| Int) (|main.j| Int) (|main.k.next| Int) (|main.k| Int) (|main.n.next| Int) (|main.n| Int) (|.s.4| Bool) (|.s.3| Bool)) (=> (let ((.def_20 (not .s.4)))
(let ((.def_17 (not .s.3)))
(let ((.def_14 (not .s.2)))
(let ((.def_10 (not .s.1)))
(let ((.def_12 (and .def_10 .s.0)))
(let ((.def_15 (and .def_12 .def_14)))
(let ((.def_18 (and .def_15 .def_17)))
(let ((.def_21 (and .def_18 .def_20)))
.def_21)))))))) (state |.s.1| |.s.0| |.s.2| |.s.3| |.s.4| |main.n| |main.k| |main.j| |main.i|))))
(assert (forall ((|.s.2| Bool) (|.s.0| Bool) (|.s.1| Bool) (|.s.0.next| Bool) (|.s.1.next| Bool) (|.s.2.next| Bool) (|.s.3.next| Bool) (|.s.4.next| Bool) (|main.i.next| Int) (|main.i| Int) (|main.j.next| Int) (|main.j| Int) (|main.k.next| Int) (|main.k| Int) (|main.n.next| Int) (|main.n| Int) (|.s.4| Bool) (|.s.3| Bool)) (=> (and (state |.s.1| |.s.0| |.s.2| |.s.3| |.s.4| |main.n| |main.k| |main.j| |main.i|) (let ((.def_22 (not .s.0)))
(let ((.def_10 (not .s.1)))
(let ((.def_23 (and .def_10 .def_22)))
(let ((.def_14 (not .s.2)))
(let ((.def_24 (and .def_14 .def_23)))
(let ((.def_17 (not .s.3)))
(let ((.def_25 (and .def_17 .def_24)))
(let ((.def_20 (not .s.4)))
(let ((.def_275 (and .def_20 .def_25)))
(let ((.def_276 (not .def_275)))
(let ((.def_49 (not .s.0.next)))
(let ((.def_47 (not .s.1.next)))
(let ((.def_50 (and .def_47 .def_49)))
(let ((.def_45 (not .s.2.next)))
(let ((.def_51 (and .def_45 .def_50)))
(let ((.def_43 (not .s.3.next)))
(let ((.def_52 (and .def_43 .def_51)))
(let ((.def_41 (not .s.4.next)))
(let ((.def_53 (and .def_41 .def_52)))
(let ((.def_39 (= main.i main.i.next)))
(let ((.def_54 (and .def_39 .def_53)))
(let ((.def_36 (= main.j main.j.next)))
(let ((.def_55 (and .def_36 .def_54)))
(let ((.def_33 (= main.k main.k.next)))
(let ((.def_56 (and .def_33 .def_55)))
(let ((.def_30 (= main.n main.n.next)))
(let ((.def_57 (and .def_30 .def_56)))
(let ((.def_277 (or .def_57 .def_276)))
(let ((.def_269 (= main.i.next 0)))
(let ((.def_64 (and .s.1.next .def_49)))
(let ((.def_65 (and .def_45 .def_64)))
(let ((.def_66 (and .def_43 .def_65)))
(let ((.def_67 (and .def_41 .def_66)))
(let ((.def_270 (and .def_67 .def_269)))
(let ((.def_271 (and .def_36 .def_270)))
(let ((.def_272 (and .def_33 .def_271)))
(let ((.def_273 (and .def_30 .def_272)))
(let ((.def_12 (and .def_10 .s.0)))
(let ((.def_15 (and .def_12 .def_14)))
(let ((.def_18 (and .def_15 .def_17)))
(let ((.def_21 (and .def_18 .def_20)))
(let ((.def_267 (not .def_21)))
(let ((.def_274 (or .def_267 .def_273)))
(let ((.def_278 (and .def_274 .def_277)))
(let ((.def_83 (and .s.1.next .s.0.next)))
(let ((.def_124 (and .def_45 .def_83)))
(let ((.def_260 (and .def_43 .def_124)))
(let ((.def_261 (and .def_41 .def_260)))
(let ((.def_262 (and .def_39 .def_261)))
(let ((.def_263 (and .def_36 .def_262)))
(let ((.def_264 (and .def_33 .def_263)))
(let ((.def_265 (and .def_30 .def_264)))
(let ((.def_248 (<= main.n main.i)))
(let ((.def_257 (not .def_248)))
(let ((.def_73 (and .s.1 .def_22)))
(let ((.def_132 (and .def_14 .def_73)))
(let ((.def_246 (and .def_17 .def_132)))
(let ((.def_247 (and .def_20 .def_246)))
(let ((.def_258 (and .def_247 .def_257)))
(let ((.def_259 (not .def_258)))
(let ((.def_266 (or .def_259 .def_265)))
(let ((.def_279 (and .def_266 .def_278)))
(let ((.def_251 (and .s.4.next .def_52)))
(let ((.def_252 (and .def_39 .def_251)))
(let ((.def_253 (and .def_36 .def_252)))
(let ((.def_254 (and .def_33 .def_253)))
(let ((.def_255 (and .def_30 .def_254)))
(let ((.def_249 (and .def_247 .def_248)))
(let ((.def_250 (not .def_249)))
(let ((.def_256 (or .def_250 .def_255)))
(let ((.def_280 (and .def_256 .def_279)))
(let ((.def_240 (= main.j.next main.i)))
(let ((.def_96 (and .s.2.next .def_50)))
(let ((.def_97 (and .def_43 .def_96)))
(let ((.def_98 (and .def_41 .def_97)))
(let ((.def_241 (and .def_98 .def_240)))
(let ((.def_242 (and .def_39 .def_241)))
(let ((.def_243 (and .def_33 .def_242)))
(let ((.def_244 (and .def_30 .def_243)))
(let ((.def_59 (and .s.1 .s.0)))
(let ((.def_120 (and .def_14 .def_59)))
(let ((.def_237 (and .def_17 .def_120)))
(let ((.def_238 (and .def_20 .def_237)))
(let ((.def_239 (not .def_238)))
(let ((.def_245 (or .def_239 .def_244)))
(let ((.def_281 (and .def_245 .def_280)))
(let ((.def_136 (and .s.2.next .def_64)))
(let ((.def_230 (and .s.3.next .def_136)))
(let ((.def_231 (and .def_41 .def_230)))
(let ((.def_232 (and .def_39 .def_231)))
(let ((.def_233 (and .def_36 .def_232)))
(let ((.def_234 (and .def_33 .def_233)))
(let ((.def_235 (and .def_30 .def_234)))
(let ((.def_217 (<= main.n main.j)))
(let ((.def_104 (and .s.2 .def_23)))
(let ((.def_215 (and .def_17 .def_104)))
(let ((.def_216 (and .def_20 .def_215)))
(let ((.def_228 (and .def_216 .def_217)))
(let ((.def_229 (not .def_228)))
(let ((.def_236 (or .def_229 .def_235)))
(let ((.def_282 (and .def_236 .def_281)))
(let ((.def_111 (and .def_47 .s.0.next)))
(let ((.def_112 (and .s.2.next .def_111)))
(let ((.def_221 (and .def_43 .def_112)))
(let ((.def_222 (and .def_41 .def_221)))
(let ((.def_223 (and .def_39 .def_222)))
(let ((.def_224 (and .def_36 .def_223)))
(let ((.def_225 (and .def_33 .def_224)))
(let ((.def_226 (and .def_30 .def_225)))
(let ((.def_218 (not .def_217)))
(let ((.def_219 (and .def_216 .def_218)))
(let ((.def_220 (not .def_219)))
(let ((.def_227 (or .def_220 .def_226)))
(let ((.def_283 (and .def_227 .def_282)))
(let ((.def_209 (= main.k.next main.j)))
(let ((.def_137 (and .def_43 .def_136)))
(let ((.def_138 (and .def_41 .def_137)))
(let ((.def_210 (and .def_138 .def_209)))
(let ((.def_211 (and .def_39 .def_210)))
(let ((.def_212 (and .def_36 .def_211)))
(let ((.def_213 (and .def_30 .def_212)))
(let ((.def_92 (and .def_12 .s.2)))
(let ((.def_206 (and .def_17 .def_92)))
(let ((.def_207 (and .def_20 .def_206)))
(let ((.def_208 (not .def_207)))
(let ((.def_214 (or .def_208 .def_213)))
(let ((.def_284 (and .def_214 .def_283)))
(let ((.def_84 (and .s.2.next .def_83)))
(let ((.def_199 (and .def_43 .def_84)))
(let ((.def_200 (and .def_41 .def_199)))
(let ((.def_201 (and .def_39 .def_200)))
(let ((.def_202 (and .def_36 .def_201)))
(let ((.def_203 (and .def_33 .def_202)))
(let ((.def_204 (and .def_30 .def_203)))
(let ((.def_186 (<= main.n main.k)))
(let ((.def_196 (not .def_186)))
(let ((.def_74 (and .s.2 .def_73)))
(let ((.def_184 (and .def_17 .def_74)))
(let ((.def_185 (and .def_20 .def_184)))
(let ((.def_197 (and .def_185 .def_196)))
(let ((.def_198 (not .def_197)))
(let ((.def_205 (or .def_198 .def_204)))
(let ((.def_285 (and .def_205 .def_284)))
(let ((.def_189 (and .s.3.next .def_96)))
(let ((.def_190 (and .def_41 .def_189)))
(let ((.def_191 (and .def_39 .def_190)))
(let ((.def_192 (and .def_36 .def_191)))
(let ((.def_193 (and .def_33 .def_192)))
(let ((.def_194 (and .def_30 .def_193)))
(let ((.def_187 (and .def_185 .def_186)))
(let ((.def_188 (not .def_187)))
(let ((.def_195 (or .def_188 .def_194)))
(let ((.def_286 (and .def_195 .def_285)))
(let ((.def_170 (<= main.i main.k)))
(let ((.def_180 (not .def_170)))
(let ((.def_60 (and .s.2 .def_59)))
(let ((.def_168 (and .def_17 .def_60)))
(let ((.def_169 (and .def_20 .def_168)))
(let ((.def_181 (and .def_169 .def_180)))
(let ((.def_182 (not .def_181)))
(let ((.def_125 (and .s.3.next .def_124)))
(let ((.def_126 (and .def_41 .def_125)))
(let ((.def_127 (and .def_39 .def_126)))
(let ((.def_128 (and .def_36 .def_127)))
(let ((.def_129 (and .def_33 .def_128)))
(let ((.def_130 (and .def_30 .def_129)))
(let ((.def_183 (or .def_130 .def_182)))
(let ((.def_287 (and .def_183 .def_286)))
(let ((.def_173 (and .s.3.next .def_51)))
(let ((.def_174 (and .def_41 .def_173)))
(let ((.def_175 (and .def_39 .def_174)))
(let ((.def_176 (and .def_36 .def_175)))
(let ((.def_177 (and .def_33 .def_176)))
(let ((.def_178 (and .def_30 .def_177)))
(let ((.def_171 (and .def_169 .def_170)))
(let ((.def_172 (not .def_171)))
(let ((.def_179 (or .def_172 .def_178)))
(let ((.def_288 (and .def_179 .def_287)))
(let ((.def_160 (and .def_45 .def_111)))
(let ((.def_161 (and .s.3.next .def_160)))
(let ((.def_162 (and .def_41 .def_161)))
(let ((.def_163 (and .def_39 .def_162)))
(let ((.def_164 (and .def_36 .def_163)))
(let ((.def_165 (and .def_33 .def_164)))
(let ((.def_166 (and .def_30 .def_165)))
(let ((.def_157 (and .s.3 .def_24)))
(let ((.def_158 (and .def_20 .def_157)))
(let ((.def_159 (not .def_158)))
(let ((.def_167 (or .def_159 .def_166)))
(let ((.def_289 (and .def_167 .def_288)))
(let ((.def_150 (and .s.3.next .def_65)))
(let ((.def_151 (and .def_41 .def_150)))
(let ((.def_147 (* (- 1) main.k.next)))
(let ((.def_148 (+ main.k .def_147)))
(let ((.def_149 (= .def_148 (- 1))))
(let ((.def_152 (and .def_149 .def_151)))
(let ((.def_153 (and .def_39 .def_152)))
(let ((.def_154 (and .def_36 .def_153)))
(let ((.def_155 (and .def_30 .def_154)))
(let ((.def_144 (and .def_15 .s.3)))
(let ((.def_145 (and .def_20 .def_144)))
(let ((.def_146 (not .def_145)))
(let ((.def_156 (or .def_146 .def_155)))
(let ((.def_290 (and .def_156 .def_289)))
(let ((.def_139 (and .def_39 .def_138)))
(let ((.def_140 (and .def_36 .def_139)))
(let ((.def_141 (and .def_33 .def_140)))
(let ((.def_142 (and .def_30 .def_141)))
(let ((.def_133 (and .s.3 .def_132)))
(let ((.def_134 (and .def_20 .def_133)))
(let ((.def_135 (not .def_134)))
(let ((.def_143 (or .def_135 .def_142)))
(let ((.def_291 (and .def_143 .def_290)))
(let ((.def_121 (and .s.3 .def_120)))
(let ((.def_122 (and .def_20 .def_121)))
(let ((.def_123 (not .def_122)))
(let ((.def_131 (or .def_123 .def_130)))
(let ((.def_292 (and .def_131 .def_291)))
(let ((.def_113 (and .s.3.next .def_112)))
(let ((.def_114 (and .def_41 .def_113)))
(let ((.def_108 (* (- 1) main.j.next)))
(let ((.def_109 (+ main.j .def_108)))
(let ((.def_110 (= .def_109 (- 1))))
(let ((.def_115 (and .def_110 .def_114)))
(let ((.def_116 (and .def_39 .def_115)))
(let ((.def_117 (and .def_33 .def_116)))
(let ((.def_118 (and .def_30 .def_117)))
(let ((.def_105 (and .s.3 .def_104)))
(let ((.def_106 (and .def_20 .def_105)))
(let ((.def_107 (not .def_106)))
(let ((.def_119 (or .def_107 .def_118)))
(let ((.def_293 (and .def_119 .def_292)))
(let ((.def_99 (and .def_39 .def_98)))
(let ((.def_100 (and .def_36 .def_99)))
(let ((.def_101 (and .def_33 .def_100)))
(let ((.def_102 (and .def_30 .def_101)))
(let ((.def_93 (and .s.3 .def_92)))
(let ((.def_94 (and .def_20 .def_93)))
(let ((.def_95 (not .def_94)))
(let ((.def_103 (or .def_95 .def_102)))
(let ((.def_294 (and .def_103 .def_293)))
(let ((.def_85 (and .s.3.next .def_84)))
(let ((.def_86 (and .def_41 .def_85)))
(let ((.def_80 (* (- 1) main.i.next)))
(let ((.def_81 (+ main.i .def_80)))
(let ((.def_82 (= .def_81 (- 1))))
(let ((.def_87 (and .def_82 .def_86)))
(let ((.def_88 (and .def_36 .def_87)))
(let ((.def_89 (and .def_33 .def_88)))
(let ((.def_90 (and .def_30 .def_89)))
(let ((.def_75 (and .s.3 .def_74)))
(let ((.def_76 (and .def_20 .def_75)))
(let ((.def_77 (not .def_76)))
(let ((.def_91 (or .def_77 .def_90)))
(let ((.def_295 (and .def_91 .def_294)))
(let ((.def_68 (and .def_39 .def_67)))
(let ((.def_69 (and .def_36 .def_68)))
(let ((.def_70 (and .def_33 .def_69)))
(let ((.def_71 (and .def_30 .def_70)))
(let ((.def_61 (and .s.3 .def_60)))
(let ((.def_62 (and .def_20 .def_61)))
(let ((.def_63 (not .def_62)))
(let ((.def_72 (or .def_63 .def_71)))
(let ((.def_296 (and .def_72 .def_295)))
(let ((.def_26 (and .s.4 .def_25)))
(let ((.def_27 (not .def_26)))
(let ((.def_58 (or .def_27 .def_57)))
(let ((.def_297 (and .def_58 .def_296)))
.def_297))))))))))))))))))))))))))))))))))))))))))))))))))))))))))))))))))))))))))))))))))))))))))))))))))))))))))))))))))))))))))))))))))))))))))))))))))))))))))))))))))))))))))))))))))))))))))))))))))))))))))))))))))))))))))))))))))))))))))))))))))))))))))))))))))))))))))))) (state |.s.1.next| |.s.0.next| |.s.2.next| |.s.3.next| |.s.4.next| |main.n.next| |main.k.next| |main.j.next| |main.i.next|))))
(assert (forall ((|.s.2| Bool) (|.s.0| Bool) (|.s.1| Bool) (|.s.0.next| Bool) (|.s.1.next| Bool) (|.s.2.next| Bool) (|.s.3.next| Bool) (|.s.4.next| Bool) (|main.i.next| Int) (|main.i| Int) (|main.j.next| Int) (|main.j| Int) (|main.k.next| Int) (|main.k| Int) (|main.n.next| Int) (|main.n| Int) (|.s.4| Bool) (|.s.3| Bool)) (=> (state |.s.1| |.s.0| |.s.2| |.s.3| |.s.4| |main.n| |main.k| |main.j| |main.i|) (let ((.def_59 (and .s.1 .s.0)))
(let ((.def_14 (not .s.2)))
(let ((.def_120 (and .def_14 .def_59)))
(let ((.def_121 (and .s.3 .def_120)))
(let ((.def_20 (not .s.4)))
(let ((.def_122 (and .def_20 .def_121)))
(let ((.def_123 (not .def_122)))
.def_123))))))))))
(check-sat)
